NAME : in_house_8_15
TYPE : TSP
DIMENSION : 8
EDGE_WEIGHT_TYPE : EXPLICIT
EDGE_WEIGHT_FORMAT : UPPER_ROW
COMMENT : INVERSION_SHIFT=2
EDGE_WEIGHT_SECTION
35
48
6
17
58
6
40
55
17
19
41
63
16
56
8
14
13
34
49
11
22
40
18
8
34
46
49
62
